c --- [ banner ] -------------------------------------------------------------
c 
c CaDiCaL Radically Simplified CDCL SAT Solver
c Copyright (c) 2016-2021 A. Biere, M. Fleury, N. Froleyks
c 
c Version 1.5.2 a5f15211db36c3956764e18194dd5bd63bf3b5e6
c g++ (GCC) 9.3.0 -Wall -Wextra -O3 -DNDEBUG
c Fri Oct 21 01:27:37 EDT 2022 Linux gra-login3 3.10.0-1160.66.1.el7.x86_64 x86_64
c 
c --- [ limit ] --------------------------------------------------------------
c 
c setting conflict limit to 200000 conflicts (due to '200000')
c 
c --- [ parsing input ] ------------------------------------------------------
c 
c reading DIMACS file from '33.cubes5546.adj'
c opening file to read '33.cubes5546.adj'
c found 'p cnf 6160 1595478' header
c parsed 1595478 clauses in 19.59 seconds process time
c closing file '33.cubes5546.adj'
c after reading 1457566797 bytes 1390.0 MB
c 
c --- [ options ] ------------------------------------------------------------
c 
c all options are set to their default value
c 
c --- [ solving ] ------------------------------------------------------------
c 
c time measured in process time since initialization
c 
c  seconds    reductions  redundant   irredundant
c          MB     restarts       trail       variables
c            level   conflicts       glue         remaining
c 
c * 19.59 1379  0 0   0    0    0  0% 0 1595422 2349 38%
c { 20.60 1430  0 0   0    0    0  0% 0 1595422 2349 38%
c i 22.64 1489 353 0   7   37   33 32% 44 1595422 2348 38%
c i 22.69 1490 347 0   7   38   33 31% 43 1595422 2347 38%
c i 23.93 1498 160 0   9  113   75 29% 31 1595422 2346 38%
c i 24.02 1498 126 0   9  150   98 29% 27 1595422 2345 38%
c i 24.26 1501 110 0   9  193  131 29% 29 1595422 2344 38%
c i 24.30 1501 109 0   9  196  133 29% 29 1595422 2343 38%
c i 24.76 1504 104 0  13  234  166 29% 31 1595422 2342 38%
c i 25.76 1511 107 0  24  280  210 29% 34 1595422 2341 38%
c - 30.19 1390 106 1  30  300  229 29% 34 256978 2341 38%
c i 30.69 1390 105 1  38  333  260 29% 36 256978 2340 38%
c i 30.74 1390 101 1  41  358  276 29% 35 256978 2339 38%
c i 31.40 1390 89 1  59  550  435 29% 36 256978 2338 38%
c i 31.42 1390 88 1  59  569  451 29% 36 256978 2337 38%
c i 31.89 1390 77 1  71  832  669 29% 35 256978 2336 38%
c i 32.11 1390 77 1  79  895  727 29% 35 256978 2335 38%
c i 32.31 1390 76 1  79  953  771 29% 35 256978 2334 38%
c i 32.35 1390 76 1  79  960  777 29% 35 256978 2333 38%
c } 32.42 1390 75 1  79 1000  815 29% 34 256978 2333 38%
c 
c  seconds    reductions  redundant  irredundant
c          MB     restarts       trail      variables
c            level   conflicts       glue        remaining
c 
c [ 32.42 1390  0 1  79 1000  815  0% 0 256978 2333 38%
c O 32.44 1390 41 1  79 1006  820 28% 35 256978 2333 38%
c i 32.68 1390 24 1  79 1133  912 27% 20 256978 2332 38%
c - 33.07 1506 24 2  79 1145  795 27% 20 256953 2332 38%
c i 33.17 1506 26 2  79 1337  947 29% 21 256953 2331 38%
c i 33.34 1506 25 2  79 1899 1395 30% 21 256953 2330 38%
c - 33.72 1506 24 3  80 2414 1332 31% 21 256947 2330 38%
c ] 34.07 1506 24 3  80 3000 1786 51% 21 256947 2330 38%
c { 34.07 1506 75 3  80 3000 1786 76% 34 256947 2330 38%
c F 34.09 1506 74 3  80 3008 1792 76% 34 256947 2330 38%
c i 34.21 1506 71 3  80 3060 1822 74% 33 256947 2329 38%
c i 34.22 1506 70 3  80 3082 1842 74% 32 256947 2328 38%
c i 34.25 1506 69 3  80 3111 1866 73% 32 256947 2327 38%
c i 34.26 1506 69 3  80 3123 1877 73% 32 256947 2326 38%
c i 34.27 1506 69 3  80 3126 1879 73% 32 256947 2325 38%
c i 34.30 1506 69 3  80 3140 1892 72% 31 256947 2324 38%
c i 34.35 1506 70 3  80 3157 1906 72% 32 256947 2323 38%
c i 34.46 1506 71 3  82 3187 1933 71% 32 256947 2322 38%
c i 34.66 1506 69 3  86 3267 2002 70% 31 256947 2321 38%
c i 34.67 1506 69 3  86 3268 2002 70% 31 256947 2320 38%
c 
c  seconds    reductions  redundant   irredundant
c          MB     restarts       trail       variables
c            level   conflicts       glue         remaining
c 
c i 34.69 1506 68 3  86 3307 2032 69% 31 256947 2319 38%
c i 34.70 1506 67 3  86 3341 2058 68% 30 256947 2318 38%
c i 34.71 1506 66 3  86 3388 2087 68% 30 256947 2317 38%
c i 34.80 1506 58 3  86 3716 2320 64% 28 256947 2316 38%
c i 34.82 1505 57 3  86 3800 2389 64% 27 256947 2303 37%
c - 35.15 1390 52 4  86 4106 1828 62% 26 256643 2300 37%
c i 35.35 1391 50 4  86 4266 1952 61% 25 256643 2299 37%
c i 35.37 1390 49 4  86 4289 1972 61% 25 256643 2298 37%
c i 35.37 1390 49 4  86 4302 1981 61% 25 256643 2297 37%
c i 35.39 1391 48 4  86 4357 2014 61% 25 256643 2296 37%
c i 35.48 1390 47 4  86 4470 2101 60% 25 256643 2295 37%
c i 36.57 1391 52 4 128 4706 2304 59% 26 256643 2294 37%
c d 38.18 1391 52 4 146 5000 2550 58% 26 256620 2291 37%
c 2 38.23 1391 52 4 146 5000 3475 58% 26 256610 2291 37%
c p 41.20 1390 52 4 146 5000 6105 58% 26 256610 2217 36%
c d 41.59 1391 52 4 146 5000 6012 58% 26 225093 2214 36%
c d 41.76 1391 52 4 146 5000 6012 58% 26 225091 2213 36%
c # 43.60 1391 48 4 199 6011 6862 56% 25 225091 2213 36%
c - 44.38 1391 48 5 207 6220 2784 55% 25 225091 2213 36%
c } 44.81 1391 45 5 227 7003 3379 55% 24 225091 2213 36%
c 
c  seconds    reductions  redundant   irredundant
c          MB     restarts       trail       variables
c            level   conflicts       glue         remaining
c 
c [ 44.81 1391 24 5 227 7003 3379 51% 21 225091 2213 36%
c - 45.22 1391 20 6 228 8654 2773 52% 17 225091 2213 36%
c I 45.58 1391 19 6 229 10013 3492 53% 16 225091 2213 36%
c - 46.97 1391 45 7 231 11493 3363 51% 33 225091 2213 36%
c - 48.81 1392 72 8 232 14740 4433 50% 52 225091 2213 36%
c ] 48.92 1392 73 8 232 15005 4649 50% 53 225091 2213 36%
c { 48.92 1392 45 8 232 15005 4649 55% 24 225091 2213 36%
c 2 48.96 1392 45 8 232 15005 5744 55% 24 225090 2213 36%
c p 49.82 1392 45 8 232 15005 8524 55% 24 225090 2213 36%
c B 49.92 1392 45 8 232 15014 8532 55% 24 225090 2213 36%
c - 53.54 1392 39 9 378 18392 5024 53% 23 225090 2213 36%
c s 54.02 1392 39 9 394 18816 4963 52% 23 223597 2213 36%
c v 56.37 1392 39 9 394 18816 4963 52% 23 223591 2213 36%
c t 56.46 1392 39 9 394 18816 4958 52% 23 223575 2213 36%
c e 57.25 1394 39 9 394 18816 4770 52% 23 221530 1043 17%
c s 57.34 1394 39 9 394 18816 4769 52% 23 221255 1043 17%
c W 60.96 1394 37 9 523 21018 6030 65% 22 221255 1043 17%
c - 62.65 1394 35 10 552 22449 5908 65% 21 221255 1043 17%
c - 67.17 1394 32 11 558 26888 6170 65% 20 221255 1043 17%
c F 68.41 1394 32 11 662 28019 7032 65% 20 221255 1043 17%
c 
c  seconds    reductions      redundant   irredundant
c          MB      restarts          trail       variables
c            level      conflicts        glue         remaining
c 
c p 76.80 1394 35 11 1062 30005 11077 64% 22 221255 1042 17%
c } 78.01 1394 34 11 1081 31006 11822 64% 22 221255 1042 17%
c [ 78.01 1394 73 11 1081 31006 11822 112% 53 221255 1042 17%
c - 78.50 1394 69 12 1081 31729 7255 108% 50 221252 1042 17%
c B 79.78 1394 56 12 1084 36023 10375 94% 42 221252 1042 17%
c - 80.46 1394 55 13 1084 36974 7724 93% 41 221252 1042 17%
c ] 81.98 1394 52 13 1087 41068 10761 87% 39 221252 1042 17%
c 1 81.98 1394 52 13 1087 41068 10761 87% 39 221252 1042 17%
c 
c --- [ writing output ] -----------------------------------------------------
c 
c writing simplified CNF to DIMACS file 'simp/33.cubes5546.adj.simp1'
c * 81.98 1394 52 13 1087 41068 10761 87% 39 221252 1042 17%
c opening file to write 'simp/33.cubes5546.adj.simp1'
c writing 'p cnf 6160 221252' header
c closing file 'simp/33.cubes5546.adj.simp1'
c after writing 101607776 bytes 96.9 MB
c wrote 221252 clauses in 0.81 seconds process time
c 
c --- [ writing extension ] --------------------------------------------------
c 
c writing extension stack to 'simp/33.cubes5546.adj.ext1'
c opening file to write 'simp/33.cubes5546.adj.ext1'
c closing file 'simp/33.cubes5546.adj.ext1'
c after writing 76268 bytes 0.1 MB
c wrote 3466 witnesses in 0.00 seconds process time
c 
c --- [ result ] -------------------------------------------------------------
c 
s SATISFIABLE
c 
c --- [ run-time profiling ] -------------------------------------------------
c 
c process time taken by individual solving procedures
c (percentage relative to process time for solving)
c 
c        51.18   82.04% search
c        40.27   64.55% unstable
c        19.59   31.40% parse
c        11.21   17.96% simplify
c         9.73   15.59% stable
c         5.98    9.59% probe
c         2.42    3.87% vivify
c         1.50    2.40% elim
c         1.01    1.61% lucky
c         0.19    0.30% subsume
c         0.17    0.28% walk
c         0.09    0.15% ternary
c   =================================
c        62.39   75.36% solve
c 
c last line shows process time for solving
c (percentage relative to total process time)
c 
c --- [ statistics ] ---------------------------------------------------------
c 
c chronological:              8342        20.31 %  of conflicts
c conflicts:                 41068       658.27    per second
c decisions:                116507      1867.48    per second
c eliminated:                 1170        18.99 %  of all variables
c fixed:                       797        12.94 %  of all variables
c learned:                   40030        97.47 %  per conflict
c learned_lits:            7356767       100.00 %  learned literals
c minimized:                     0         0.00 %  learned literals
c shrunken:                4427823        60.19 %  learned literals
c minishrunken:             592894         8.06 %  learned literals
c propagations:            4507419         0.07 M  per second
c reduced:                   19014        46.30 %  per conflict
c rephased:                      8      5133.50    interval
c restarts:                   1087        37.78    interval
c stabilizing:                   3        48.86 %  of conflicts
c substituted:                   7         0.11 %  of all variables
c subsumed:                  11984         0.36 %  of all clauses
c strengthened:               4688         0.14 %  of all clauses
c ternary:                    2640         0.58 %  of resolved
c vivified:                     24         0.00 %  of all clauses
c walked:                        1     41068.00    interval
c weakened:                   2669         3.01    average size
c 
c seconds are measured in process time for solving
c 
c --- [ resources ] ----------------------------------------------------------
c 
c total process time since initialization:        82.79    seconds
c total real time since initialization:           87.17    seconds
c maximum resident set size of process:         1621.48    MB
c 
c --- [ shutting down ] ------------------------------------------------------
c 
c exit 10
WARNING! DIMACS header mismatch: wrong number of variables.
============================[ Problem Statistics ]=============================
|                                                                             |
|  Number of variables:          6111                                         |
|  Number of clauses:          221252                                         |
|  Parse time:                   1.36 s                                       |
|  Simplification time:          0.05 s                                       |
|                                                                             |
============================[ Search Statistics ]====================================================
| Conflicts |          ORIGINAL         |          LEARNT          | Num Sols |      SUBGRAPHS      |
|           |    Vars  Clauses Literals |    Limit  Clauses Lit/Cl |          | Canonical Noncanon. |
=====================================================================================================
|       151 |    6018   221303 21916219 |     2000      151    104 |        0 |        32        51 |
|       321 |    6018   221323 21917374 |     2000      321     97 |        0 |        44        71 |
|       585 |    6018   221362 21918222 |     2000      585     94 |        0 |        63       110 |
|       924 |    6018   221364 21918259 |     2000      924    104 |        0 |        73       112 |
|      1432 |    6018   221366 21918283 |     2000     1432    106 |        0 |        74       114 |
|      2292 |    6018   221467 21920163 |     3600     1292     61 |        0 |       127       215 |
|      3574 |    6018   221610 21922842 |     3600     2574     86 |        0 |       162       358 |
|      5556 |    6018   221884 21928114 |     5002     2758     59 |        0 |       279       632 |
|      8162 |    6018   221928 21929426 |     6304     2866     42 |        0 |       327       676 |
|     12403 |    6018   222325 21935707 |     7559     3962     48 |        0 |       475      1073 |
|     18512 |    6018   222668 21941574 |     8786     6298     66 |        0 |       599      1416 |
|     27578 |    6018   223085 21949467 |    11203     5981     39 |        0 |       755      1833 |
|     40754 |    6018   223287 21953294 |    13614     7368     40 |        0 |       900      2035 |
|     60730 |    6018   223802 21961450 |    16014    13144     72 |        0 |      1085      2550 |
|     90432 |    6018   224312 21971043 |    19618    17050     69 |        0 |      1366      3060 |
|    134700 |    6018   224791 21979524 |    24414    18514     66 |        0 |      1612      3539 |
|    202252 |    6018   226659 22009420 |    30416    19068     57 |        0 |      2199      5407 |
|    304221 |    6018   230102 22065163 |    37624    20845     46 |        0 |      3181      8850 |
|    453809 |    6018   231901 22102400 |    46011    26220     46 |        0 |      3761     10649 |
|    679296 |    6018   235705 22160296 |    55611    50907     71 |        0 |      4948     14453 |
|   1018380 |    6018   242264 22291467 |    68820    51200     62 |        0 |      7119     21012 |
|   1523449 |    6018   248545 22436539 |    84419    62268     53 |        0 |      8248     27293 |
|   2276413 |    6018   253327 22539421 |   103622    68035     50 |        0 |      9249     32075 |
|   3412787 |    6018   267427 22820036 |   126410   117597     73 |        2 |     12767     46173 |
|   5123480 |    6018   294709 23341149 |   155218   145898     71 |        2 |     22966     73455 |
|   7686851 |    6018   332964 24000319 |   191226   120277     51 |        2 |     33126    111710 |
|  11500814 |    6018   359252 24530910 |   233251   231265     68 |        5 |     42651    137995 |
|  17253730 |    6018   430656 25804287 |   287232   143162     31 |        5 |     62776    209399 |
|  25820916 |    6018   475573 26792663 |   350831   272747     62 |        6 |     74089    254315 |
|  38652486 |    5976   272172 22983460 |   321907   132793     53 |        6 |     89804    302482 |
=====================================================================================================
Number of solutions   : 6
Canonical subgraphs   : 92228          (18 /sec)
          order  3    : 1              (125000 /sec)
          order  4    : 1              (333333 /sec)
          order  5    : 1              (125000 /sec)
          order  6    : 1              (33333 /sec)
          order  7    : 1              (5319 /sec)
          order  8    : 2              (955 /sec)
          order  9    : 6              (289 /sec)
          order 10    : 24             (90 /sec)
          order 11    : 97             (27 /sec)
          order 12    : 609            (9 /sec)
          order 13    : 4787           (8 /sec)
          order 14    : 32835          (17 /sec)
          order 15    : 45432          (23 /sec)
          order 16    : 4798           (22 /sec)
          order 17    : 1648           (18 /sec)
          order 18    : 559            (15 /sec)
          order 19    : 449            (14 /sec)
          order 20    : 477            (13 /sec)
          order 21    : 494            (13 /sec)
          order 22    : 6              (1 /sec)
Noncanonical subgraphs: 312673         (504 /sec)
          order  3    : 0              (-nan /sec)
          order  4    : 0              (-nan /sec)
          order  5    : 0              (-nan /sec)
          order  6    : 0              (-nan /sec)
          order  7    : 0              (-nan /sec)
          order  8    : 0              (-nan /sec)
          order  9    : 0              (-nan /sec)
          order 10    : 0              (-nan /sec)
          order 11    : 0              (-nan /sec)
          order 12    : 0              (-nan /sec)
          order 13    : 11805          (7445 /sec)
          order 14    : 165356         (1370 /sec)
          order 15    : 76343          (1060 /sec)
          order 16    : 56021          (160 /sec)
          order 17    : 2349           (91 /sec)
          order 18    : 274            (48 /sec)
          order 19    : 0              (-nan /sec)
          order 20    : 5              (24 /sec)
          order 21    : 0              (-nan /sec)
Canonicity checking   : 4989.21 s
Noncanonicity checking: 620.442 s
Total canonicity time : 5609.65 s
database reductions   : 375
restarts              : 60030
conflicts             : 42836605       (1543 /sec)
decisions             : 52289547       (0.00 % random) (1883 /sec)
propagations          : 2424527710     (87315 /sec)
conflict literals     : 4595314462     (58.23 % deleted)
actual reward         : 0.217094
Memory used           : 681.00 MB
CPU time              : 27767.6 s

UNSATISFIABLE
